8
4
10
1
6 1 1 2
5 2 1 3
2 5 1 6
1 6 1 6
3 1 1 6
3 1 1 10
1 5 2 8 9
3 4 0
1 1 0
1 7 1 7
6
2
1 5 1 2
2 6 1 3
2 10 1 4
2 7 1 5
2 5 1 6
1 5 0
6
3
1 7 1 2
4 3 1 3
2 10 2 4 5
1 17 1 6
2 8 1 6
2 6 0
11
5
1 3 1 2
6 2 1 3
8 1 1 4
2 5 1 5
4 23 1 6
2 5 1 7
5 3 1 8
7 1 1 9
2 4 1 10
5 2 0
1 4 1 3
